p edge 34 67
e 1 2
e 1 10
e 1 11
e 1 17
e 1 20
e 1 22
e 1 33
e 1 34
e 2 3
e 2 4
e 2 5
e 2 10
e 2 14
e 2 18
e 2 20
e 3 4
e 3 9
e 3 13
e 3 14
e 3 22
e 3 25
e 3 27
e 3 29
e 3 30
e 3 32
e 4 9
e 4 10
e 4 13
e 4 14
e 4 32
e 5 10
e 5 15
e 6 10
e 6 15
e 6 18
e 6 21
e 7 8
e 7 12
e 7 19
e 7 26
e 9 13
e 9 23
e 9 25
e 9 27
e 10 20
e 11 16
e 11 31
e 11 33
e 11 34
e 13 23
e 13 32
e 14 18
e 15 19
e 15 21
e 15 28
e 16 31
e 19 24
e 19 26
e 20 21
e 22 25
e 22 29
e 22 30
e 25 27
e 25 29
e 25 30
e 29 30
e 33 34
